results_rootrelaxation/bin012_050_021.srr.sol
solution status: optimal solution found
objective value:                                    0
_var18_                             0.632108440114367 	(obj:0)
_var361_                            0.144127925447419 	(obj:0)
_var410_                            0.309753256380389 	(obj:0)
_var520_                            0.132690882134919 	(obj:0)
_var696_                          0.00974266652546883 	(obj:0)
_var697_                            0.144551519644183 	(obj:0)
_var698_                           0.0113311447633186 	(obj:0)
_var712_                            0.121465635920787 	(obj:0)
_var713_                            0.155776765858308 	(obj:0)
_var715_                            0.105474954993119 	(obj:0)
_var725_                            0.242295880546438 	(obj:0)
_var726_                            0.326485227152389 	(obj:0)
_var728_                            0.153446997776131 	(obj:0)
_var729_                             0.21995128666737 	(obj:0)
_var731_                           0.0297574923223545 	(obj:0)
_var736_                            0.120724346076457 	(obj:0)
_var737_                            0.262416604892514 	(obj:0)
_var738_                            0.357407603515834 	(obj:0)
_var740_                           0.0217092025839244 	(obj:0)
_var741_                            0.305940908609555 	(obj:0)
_var742_                            0.431324790850363 	(obj:0)
_var751_                            0.061632955628507 	(obj:0)
_var752_                            0.190087895795827 	(obj:0)
_var753_                            0.198983373927775 	(obj:0)
_var756_                             0.24854389494864 	(obj:0)
_var758_                           0.0521020862014208 	(obj:0)
_var763_                            0.120724346076457 	(obj:0)
_var764_                           0.0521020862014208 	(obj:0)
_var765_                            0.196018214550461 	(obj:0)
_var767_                            0.252038547071904 	(obj:0)
_var768_                            0.118182780895901 	(obj:0)
_var770_                            0.113205549083977 	(obj:0)
_var772_                            0.294927459493806 	(obj:0)
_var773_                            0.244519750079422 	(obj:0)
_var775_                            0.206713968018643 	(obj:0)
_var778_                           0.0724346076458744 	(obj:0)
_var779_                            0.199830562321297 	(obj:0)
_var780_                            0.584877687175684 	(obj:0)
_var782_                           0.0189558403049875 	(obj:0)
_var785_                           0.0605739701366085 	(obj:0)
_var787_                            0.188923011754742 	(obj:0)
_var789_                            0.203007518796991 	(obj:0)
_var793_                            0.623636556179178 	(obj:0)
_var794_                            0.551625542730063 	(obj:0)
_var798_                           0.0498782166684324 	(obj:0)
_var800_                           0.0913904479508675 	(obj:0)
_var801_                            0.176532881499523 	(obj:0)
_var807_                            0.130890606798685 	(obj:0)
_var808_                           0.0697871439161253 	(obj:0)
_var809_                            0.252991634014614 	(obj:0)
_var810_                           0.0386529704543073 	(obj:0)
_var812_                            0.159377316530767 	(obj:0)
_var814_                            0.173461823573013 	(obj:0)
_var818_                           0.0189558403049875 	(obj:0)
_var820_                            0.312188923011751 	(obj:0)
_var821_                            0.326485227152389 	(obj:0)
_var822_                           0.0111193476649371 	(obj:0)
_var823_                           0.0461717674467851 	(obj:0)
_var829_                           0.0282749126336966 	(obj:0)
_var832_                          0.00275336227893695 	(obj:0)
_var836_                           0.0189558403049875 	(obj:0)
